<number of tasks>
50

<cycle time>
1000

<order strength>
0.202


<task times>
1 48
2 80
3 68
4 296
5 612
6 223
7 470
8 576
9 115
10 244
11 159
12 181
13 508
14 138
15 487
16 221
17 226
18 238
19 121
20 153
21 549
22 69
23 255
24 524
25 380
26 185
27 582
28 129
29 161
30 141
31 249
32 478
33 101
34 566
35 63
36 454
37 112
38 230
39 150
40 151
41 195
42 83
43 259
44 212
45 317
46 78
47 25
48 130
49 226
50 316

<precedence relations>
1,34
2,34
3,10
3,11
3,12
3,15
4,14
4,25
4,34
5,31
5,47
6,9
6,13
6,14
9,34
10,16
11,17
13,18
14,20
14,23
15,19
16,22
17,23
18,21
18,24
18,25
18,27
18,33
19,38
20,26
21,29
22,28
22,33
23,33
23,50
26,30
26,31
27,32
28,34
29,35
30,36
30,38
31,37
33,45
34,39
34,40
34,41
34,42
35,43
36,44
37,45
40,48
41,49
42,50
43,47
44,46

<end>
